Traveling Salesman Problem/TSP_generados/Aleatorio1621103391_13.tsp
NAME: Aleatorio1621103391_13.tsp
COMMENT: Randomly generated scenario
TYPE: TSP
DIMENSION: 13
EDGE_WEIGHT_TYPE: ATT
NODE_COORD_SECTION
1 32.74 18.81
2 20.32 45.92
3 9.19 30.25
4 49.81 5.88
5 18.16 22.58
6 27.11 26.61
7 37.42 19.55
8 14.47 43.9
9 39.64 19.9
10 2.56 22.29
11 48.24 42.39
12 46.63 1.89
13 35.62 3.37
