Traveling Salesman Problem/TSP_generados/Aleatorio1621103391_13.opt.tour
NAME: Aleatorio1621103391_13.opt.tour
COMMENT: Optimal solution for Aleatorio1621103391_13 (171.0566273589142)
TYPE: TOUR
DIMENSION: 13
TOUR_SECTION
1 13 12 4 7 9 11 2 8 3 10 5 6
-1
EOF
